8,3	0,0	15,7	19,0	0,0	0,0	0,0	0,0	0,0	12,7
14,4	16,8	0,0	18,2	9,9	0,0	0,0	9,9	0,0	0,0
0,0	0,0	19,9	0,0	6,2	5,7	0,0	0,0	7,9	0,0
17,5	0,0	11,6	0,0	0,0	0,0	17,9	0,0	0,0	0,0
0,0	11,3	0,0	12,4	9,5	0,0	0,0	5,1	0,0	0,0
0,0	15,8	5,1	0,0	10,7	13,6	0,0	0,0	6,3	0,0
0,0	9,7	0,0	11,3	0,0	0,0	19,6	0,0	0,0	13,5
9,1	0,0	19,5	0,0	0,0	0,0	0,0	0,0	0,0	8,9
0,0	5,8	0,0	7,2	17,7	0,0	0,0	6,6	0,0	0,0
0,0	0,0	17,9	0,0	0,0	18,0	7,6	0,0	0,0	11,9
									
3,4	4,7	3,9	4,0	3,4	2,9	4,2	4,4	4,2	2,7
